(set-info :status sat)
(declare-const symbol_2160 (_ BitVec 32))
(declare-const symbol_2177 (_ BitVec 32))
(declare-const symbol_2257 (_ BitVec 32))
(declare-const symbol_2255 (_ BitVec 32))
(declare-const symbol_2220 (_ BitVec 32))
(declare-const symbol_2238 (_ BitVec 32))
(declare-const symbol_2206 (_ BitVec 32))
(declare-const symbol_2179 (_ BitVec 32))
(declare-const symbol_2269 (_ BitVec 32))
(declare-const symbol_2198 (_ BitVec 32))
(declare-const symbol_2251 (_ BitVec 32))
(declare-const symbol_2164 (_ BitVec 32))
(declare-const symbol_2240 (_ BitVec 32))
(declare-const symbol_2165 (_ BitVec 32))
(declare-const symbol_2265 (_ BitVec 32))
(declare-const symbol_2212 (_ BitVec 32))
(declare-const symbol_2189 (_ BitVec 32))
(declare-const symbol_2175 (_ BitVec 32))
(declare-const symbol_2253 (_ BitVec 32))
(declare-const symbol_2234 (_ BitVec 32))
(declare-const symbol_2226 (_ BitVec 32))
(declare-const symbol_2183 (_ BitVec 32))
(declare-const symbol_2267 (_ BitVec 32))
(declare-const symbol_2210 (_ BitVec 32))
(declare-const symbol_2249 (_ BitVec 32))
(declare-const symbol_2263 (_ BitVec 32))
(declare-const symbol_2208 (_ BitVec 32))
(declare-const symbol_2162 (_ BitVec 32))
(declare-const symbol_2271 (_ BitVec 32))
(declare-const symbol_2218 (_ BitVec 32))
(declare-const symbol_2167 (_ BitVec 32))
(declare-const symbol_2158 (_ BitVec 32))
(declare-const symbol_2224 (_ BitVec 32))
(declare-const symbol_2185 (_ BitVec 32))
(declare-const symbol_2236 (_ BitVec 32))
(declare-const symbol_2228 (_ BitVec 32))
(declare-const symbol_2214 (_ BitVec 32))
(declare-const symbol_2259 (_ BitVec 32))
(declare-const symbol_2196 (_ BitVec 32))
(declare-const symbol_2248 (_ BitVec 32))
(declare-const symbol_2244 (_ BitVec 32))
(declare-const symbol_2204 (_ BitVec 32))
(declare-const symbol_2216 (_ BitVec 32))
(declare-const symbol_2192 (_ BitVec 32))
(declare-const symbol_2232 (_ BitVec 32))
(declare-const symbol_2222 (_ BitVec 32))
(declare-const symbol_2200 (_ BitVec 32))
(declare-const symbol_2242 (_ BitVec 32))
(declare-const symbol_2187 (_ BitVec 32))
(declare-const symbol_2202 (_ BitVec 32))
(declare-const symbol_2246 (_ BitVec 32))
(declare-const symbol_2181 (_ BitVec 32))
(declare-const symbol_2194 (_ BitVec 32))
(declare-const symbol_2173 (_ BitVec 32))
(declare-const symbol_2261 (_ BitVec 32))
(declare-const symbol_2169 (_ BitVec 32))
(declare-const symbol_2273 (_ BitVec 32))
(declare-const symbol_2230 (_ BitVec 32))
(declare-const symbol_2171 (_ BitVec 32))
(assert (not (not (= symbol_2273 (_ bv15 32)))))
(assert (not (not (= symbol_2271 (_ bv15 32)))))
(assert (not (not (= symbol_2269 (_ bv15 32)))))
(assert (not (not (= symbol_2267 (_ bv15 32)))))
(assert (not (not (= symbol_2265 (_ bv15 32)))))
(assert (not (not (= symbol_2263 (_ bv15 32)))))
(assert (not (not (= symbol_2261 (_ bv15 32)))))
(assert (not (not (= symbol_2259 (_ bv15 32)))))
(assert (not (not (= symbol_2257 (_ bv15 32)))))
(assert (not (not (= symbol_2255 (_ bv15 32)))))
(assert (not (not (= symbol_2253 (_ bv15 32)))))
(assert (not (not (= symbol_2251 (_ bv15 32)))))
(assert (not (not (= symbol_2249 (_ bv15 32)))))
(assert (not (not (= symbol_2248 (_ bv15 32)))))
(assert (not (not (= symbol_2246 (_ bv15 32)))))
(assert (not (not (= symbol_2244 (_ bv15 32)))))
(assert (not (not (= symbol_2242 (_ bv15 32)))))
(assert (not (not (= symbol_2240 (_ bv15 32)))))
(assert (not (not (= symbol_2238 (_ bv15 32)))))
(assert (not (not (= symbol_2236 (_ bv15 32)))))
(assert (not (not (= symbol_2234 (_ bv15 32)))))
(assert (not (not (= symbol_2232 (_ bv15 32)))))
(assert (not (not (= symbol_2230 (_ bv15 32)))))
(assert (not (not (= symbol_2228 (_ bv15 32)))))
(assert (not (not (= symbol_2226 (_ bv15 32)))))
(assert (not (not (= symbol_2224 (_ bv15 32)))))
(assert (not (not (= symbol_2222 (_ bv15 32)))))
(assert (not (not (= symbol_2220 (_ bv15 32)))))
(assert (not (not (= symbol_2218 (_ bv15 32)))))
(assert (not (not (= symbol_2216 (_ bv15 32)))))
(assert (not (not (= symbol_2214 (_ bv15 32)))))
(assert (not (not (= symbol_2212 (_ bv15 32)))))
(assert (not (not (= symbol_2210 (_ bv15 32)))))
(assert (not (not (= symbol_2208 (_ bv15 32)))))
(assert (not (not (= symbol_2206 (_ bv15 32)))))
(assert (not (not (= symbol_2204 (_ bv15 32)))))
(assert (not (not (= symbol_2202 (_ bv15 32)))))
(assert (not (not (= symbol_2200 (_ bv15 32)))))
(assert (not (not (= symbol_2198 (_ bv15 32)))))
(assert (not (not (= symbol_2196 (_ bv15 32)))))
(assert (not (not (= symbol_2194 (_ bv15 32)))))
(assert (not (not (= symbol_2192 (_ bv15 32)))))
(assert (not (not (= symbol_2189 (_ bv15 32)))))
(assert (not (not (= symbol_2187 (_ bv15 32)))))
(assert (not (not (= symbol_2185 (_ bv15 32)))))
(assert (not (not (= symbol_2183 (_ bv15 32)))))
(assert (not (not (= symbol_2181 (_ bv15 32)))))
(assert (not (not (= symbol_2179 (_ bv15 32)))))
(assert (not (not (= symbol_2177 (_ bv15 32)))))
(assert (not (not (= symbol_2175 (_ bv15 32)))))
(assert (not (not (= symbol_2173 (_ bv15 32)))))
(assert (not (not (= symbol_2171 (_ bv15 32)))))
(assert (not (not (= symbol_2169 (_ bv15 32)))))
(assert (not (not (= symbol_2167 (_ bv15 32)))))
(assert (not (not (= symbol_2165 (_ bv15 32)))))
(assert (not (not (= symbol_2164 (_ bv15 32)))))
(assert (not (not (= symbol_2162 (_ bv15 32)))))
(assert (not (not (= symbol_2160 (_ bv15 32)))))
(assert (not (not (= symbol_2158 (_ bv15 32)))))
(check-sat)